NAME : kroB100-C-5-1-a__bsl_same_priority_ls__28310.tour
COMMENT : Length = 28310.000
COMMENT : Generated by compare_sota_instances.py for bsl_same_priority_ls
TYPE : TOUR
DIMENSION : 100
TOUR_SECTION
1
12
43
89
87
83
4
66
6
15
51
48
31
63
82
33
64
14
42
2
13
78
17
41
44
19
92
96
36
45
16
50
77
18
24
55
22
23
88
47
65
75
30
90
95
98
29
8
99
97
76
59
32
71
27
61
35
94
74
60
57
34
7
84
58
52
54
37
72
80
20
38
49
86
68
10
21
46
9
25
79
81
56
100
26
69
62
5
67
70
39
40
53
73
85
93
11
28
91
3
-1
EOF
